c CNF-Signature NOR_23
c 
c $p 23 1
c $m (1,2,3,4,5,6,7,8,9,10,11,12,13,14,15,16,17,18,19,20,21,22,23,24)
c $i 1
c $i 2
c $i 3
c $i 4
c $i 5
c $i 6
c $i 7
c $i 8
c $i 9
c $i 10
c $i 11
c $i 12
c $i 13
c $i 14
c $i 15
c $i 16
c $i 17
c $i 18
c $i 19
c $i 20
c $i 21
c $i 22
c $i 23
c $o 24
p cnf 24 24
-1 -24 0
-2 -24 0
-3 -24 0
-4 -24 0
-5 -24 0
-6 -24 0
-7 -24 0
-8 -24 0
-9 -24 0
-10 -24 0
-11 -24 0
-12 -24 0
-13 -24 0
-14 -24 0
-15 -24 0
-16 -24 0
-17 -24 0
-18 -24 0
-19 -24 0
-20 -24 0
-21 -24 0
-22 -24 0
-23 -24 0
1 2 3 4 5 6 7 8 9 10 11 12 13 14 15 16 17 18 19 20 21 22 23 24 0
